
Gurobi 9.0.2 (win64) logging started Sat Oct 10 18:17:52 2020

Changed value of parameter logfile to result\v6.2-20201010T1221\scenario_2030_eff080_cab5000.log
   Prev:   Default: 
Gurobi Optimizer version 9.0.2 build v9.0.2rc0 (win64)
Optimize a model with 1384150 rows, 884815 columns and 3912197 nonzeros
Model fingerprint: 0xda36df7e
Coefficient statistics:
  Matrix range     [1e-07, 5e+05]
  Objective range  [1e+00, 1e+00]
  Bounds range     [0e+00, 0e+00]
  RHS range        [2e-05, 3e+08]
Warning: Model contains large matrix coefficient range
         Consider reformulating model or setting NumericFocus parameter
         to avoid numerical issues.

Concurrent LP optimizer: primal simplex, dual simplex, and barrier
Showing barrier log only...

Presolve removed 1129315 rows and 656241 columns
Presolve time: 3.60s
Presolved: 254835 rows, 342440 columns, 891938 nonzeros

Ordering time: 0.13s

Barrier statistics:
 Dense cols : 9
 AA' NZ     : 8.194e+05
 Factor NZ  : 4.461e+06 (roughly 300 MBytes of memory)
 Factor Ops : 1.125e+08 (less than 1 second per iteration)
 Threads    : 30

                  Objective                Residual
Iter       Primal          Dual         Primal    Dual     Compl     Time
   0  -2.11404207e+16 -1.58516119e+15  6.34e+06 1.56e+04  2.54e+12     4s
   1  -3.21251581e+15 -1.58990812e+15  9.56e+05 4.74e+06  8.37e+11     5s
   2  -1.36161564e+15 -1.27782370e+15  4.03e+05 7.46e+05  2.19e+11     5s
   3  -4.75151077e+14 -1.05034101e+15  1.38e+05 1.95e+05  6.98e+10     5s
   4  -1.10791393e+14 -6.38916393e+14  3.08e+04 4.43e+04  1.62e+10     6s
   5  -3.58457175e+13 -3.93096628e+14  1.01e+04 1.74e+04  5.94e+09     6s
   6  -1.57105714e+13 -2.85044111e+14  4.74e+03 8.76e+03  2.96e+09     6s
   7  -6.68966507e+12 -1.52364693e+14  2.21e+03 1.51e+03  9.54e+08     6s
   8  -7.64850288e+11 -7.11094263e+13  4.79e+02 2.01e+02  2.09e+08     7s
   9   6.89880371e+11 -8.73444200e+12  1.97e+00 2.00e+00  1.40e+07     7s
  10   1.71152791e+11 -1.12390573e+12  1.59e-01 1.37e-01  1.88e+06     7s
  11   9.21715778e+10 -4.07193266e+11  7.63e-02 7.45e-09  7.25e+05     8s
  12   4.69449370e+10 -2.83362819e+11  3.44e-02 7.45e-09  4.79e+05     8s
  13   2.18129204e+10 -1.03284753e+11  1.26e-02 1.12e-08  1.81e+05     8s
  14   2.07147271e+10 -4.25617596e+10  1.16e-02 1.12e-08  9.18e+04     8s
  15   1.98660436e+10 -3.22591880e+10  1.03e-02 1.12e-08  7.57e+04     8s
  16   1.16942868e+10 -7.82374012e+09  2.64e-03 1.12e-08  2.83e+04     9s
  17   9.62986794e+09 -8.69589311e+08  1.15e-03 9.31e-09  1.52e+04     9s
  18   9.30434764e+09  3.73499582e+09  9.51e-04 7.45e-09  8.06e+03     9s
  19   9.01768972e+09  4.95258630e+09  7.76e-04 5.59e-09  5.88e+03    10s
  20   8.77029531e+09  5.50152792e+09  6.27e-04 3.73e-09  4.73e+03    10s
  21   8.61130898e+09  5.70550170e+09  5.25e-04 5.59e-09  4.20e+03    10s
  22   8.41952630e+09  6.52096781e+09  4.16e-04 3.73e-09  2.75e+03    10s
  23   8.22640512e+09  6.80652194e+09  3.20e-04 2.79e-09  2.05e+03    11s
  24   7.98771900e+09  6.98101236e+09  1.72e-04 2.79e-09  1.46e+03    11s
  25   7.86896098e+09  7.31613963e+09  1.02e-04 1.86e-09  7.99e+02    12s
  26   7.78608061e+09  7.44668497e+09  5.48e-05 1.86e-09  4.90e+02    12s
  27   7.75660680e+09  7.52299734e+09  3.95e-05 1.86e-09  3.38e+02    12s
  28   7.72443895e+09  7.54619052e+09  2.31e-05 1.86e-09  2.58e+02    13s
  29   7.71028987e+09  7.57726373e+09  1.59e-05 1.86e-09  1.92e+02    13s
  30   7.69689330e+09  7.60444229e+09  9.33e-06 1.86e-09  1.34e+02    13s
  31   7.68985348e+09  7.64621418e+09  5.99e-06 1.86e-09  6.30e+01    13s
  32   7.68266771e+09  7.66235755e+09  2.87e-06 2.79e-09  2.93e+01    14s
  33   7.67900860e+09  7.66680183e+09  1.31e-06 1.86e-09  1.76e+01    14s
  34   7.67747937e+09  7.67048664e+09  6.75e-07 1.86e-09  1.01e+01    14s
  35   7.67647127e+09  7.67276995e+09  6.83e-07 1.86e-09  5.35e+00    14s
  36   7.67616341e+09  7.67315850e+09  8.26e-07 1.86e-09  4.34e+00    15s
  37   7.67592329e+09  7.67487161e+09  6.51e-07 2.79e-09  1.52e+00    15s
  38   7.67575205e+09  7.67554776e+09  9.85e-07 2.79e-09  2.95e-01    15s
  39   7.67570221e+09  7.67568332e+09  7.27e-08 2.79e-09  2.73e-02    15s
  40   7.67569907e+09  7.67569645e+09  3.31e-10 2.79e-09  3.79e-03    16s
  41   7.67569901e+09  7.67569901e+09  4.67e-07 9.36e-09  6.54e-06    16s
  42   7.67569901e+09  7.67569901e+09  9.46e-04 5.39e-04  6.54e-06    16s

Barrier solved model in 42 iterations and 16.42 seconds
Optimal objective 7.67569901e+09

Crossover log...

   77073 DPushes remaining with DInf 0.0000000e+00                17s
    1096 DPushes remaining with DInf 0.0000000e+00                20s
       0 DPushes remaining with DInf 0.0000000e+00                21s
Warning: Markowitz tolerance tightened to 0.5

   88670 PPushes remaining with PInf 2.1650918e-02                21s
   40695 PPushes remaining with PInf 3.9134842e-02                29s
   26568 PPushes remaining with PInf 3.9134831e-02                31s
    6572 PPushes remaining with PInf 3.5319198e-05                37s
       0 PPushes remaining with PInf 0.0000000e+00                39s

  Push phase complete: Pinf 0.0000000e+00, Dinf 4.1503598e+00     39s

Iteration    Objective       Primal Inf.    Dual Inf.      Time
  117183    7.6756990e+09   0.000000e+00   4.150360e+00     40s
  117184    7.6756990e+09   0.000000e+00   0.000000e+00     42s

Solved with barrier
Solved in 117184 iterations and 41.98 seconds
Optimal objective  7.675699013e+09
Warning: unscaled primal violation = 0.000867928 and residual = 0.000867928
